CONTCARcif                              
   1.00000000000000     
    14.7784004211000006    0.0000000000000000    0.0000000000000000
    -7.3892002106000003   12.7984701919999999    0.0000000000000000
     0.0000000000000000    0.0000000000000000   15.0000000000000000
   C    N    Fe
    66     4     1
Direct
  0.0003686461468675  0.0003065640858750  0.1100328832379134
  0.0581102498866173  0.1123852215324561  0.1100314544264123
  0.1653057981937849  0.9983637410777249  0.1100300888856509
  0.2221277105795068  0.1091254182321961  0.1100335407981348
  0.3322765158257255  0.9982738891986358  0.1100276254618038
  0.3890849330389443  0.1084982118408746  0.1100383482032896
  0.5002196405292381  0.0001356226805811  0.1100288669220220
  0.5566061118974304  0.1104380819853787  0.1100317274152189
  0.6678845524244750  0.0014437741167370  0.1100286866901925
  0.7241624340157315  0.1121107637327441  0.1100277707915822
  0.8349588683731781  0.0014872749912129  0.1100286795119203
  0.8920960015247914  0.1131939111020799  0.1100309677079991
  0.0040585479380724  0.1693637623469328  0.1100312486720441
  0.0622590214592194  0.2811553697694364  0.1100246064093824
  0.1698972411549420  0.1677215151742573  0.1100250781255596
  0.2304651491748118  0.2801123413418907  0.1100061268676953
  0.3332844267669159  0.1631281720833755  0.1100354642053318
  0.3887949380585312  0.2723658762722394  0.1100200242850207
  0.4997978367121547  0.1638537614594568  0.1100383839288526
  0.5555995407894727  0.2742856218472340  0.1100351471261192
  0.6678794632926781  0.1664981107582193  0.1100286522559699
  0.7235771173972267  0.2774980165020153  0.1100321889906226
  0.8359368407475998  0.1680038076120667  0.1100272726861036
  0.8921086924685042  0.2789781776715756  0.1100310502715942
  0.0040722468244709  0.3347638956835439  0.1100310564215619
  0.0581230322975586  0.4458038465975136  0.1100319990206700
  0.1758271838320979  0.3379329712955013  0.1100090395420494
  0.2304551973196567  0.4504080901478247  0.1100065322101074
  0.5000882814453931  0.3280129786107366  0.1100181793401518
  0.6667563608071561  0.3314400835378493  0.1100329643877629
  0.7189866251904178  0.4422663002746248  0.1100271097022230
  0.8349744892125130  0.3335559178922765  0.1100288492571195
  0.8885152255152775  0.4443776977686298  0.1100314746269930
  0.0003859856023212  0.5001501814219154  0.1100332665013539
  0.0539238603206087  0.6109680538995335  0.1100300385468387
  0.1698998811831842  0.5022352421391574  0.1100255373952166
  0.2221327891479064  0.6130609130841620  0.1100344122083996
  0.3887945595576596  0.6164912487762209  0.1100207616877498
  0.6584168773283565  0.4940876915412744  0.1100137149177201
  0.7130544626338278  0.6065467798408264  0.1100163485621408
  0.8307753445875861  0.4987166280408815  0.1100294173080911
  0.8848245831429367  0.6097466992347549  0.1100304938927010
  0.9967881664025811  0.6655394335214098  0.1100280938901079
  0.0529467150799974  0.7765084801785065  0.1100272181865876
  0.1653092884783902  0.6670041090488183  0.1100302642535738
  0.2209974575000331  0.7779995483897792  0.1100279771902919
  0.3332815726637719  0.6702051889057401  0.1100365170954376
  0.3890833410030012  0.7806333401720238  0.1100383800573894
  0.5000880934962524  0.6721366508678486  0.1100185617025673
  0.5556023929448841  0.7813653020909612  0.1100353731769843
  0.6584260933140911  0.6643941275819572  0.1100133776169798
  0.7189833579294671  0.7767772094034981  0.1100275902139387
  0.8266231403023099  0.6633379615558397  0.1100270340697378
  0.8848110878279982  0.7751339781156261  0.1100303391090236
  0.9967755638734914  0.8313120329424137  0.1100284424837739
  0.0539080340951372  0.9430242418840322  0.1100299527790298
  0.1647206995622952  0.8323895586660655  0.1100256107217632
  0.2210025498895405  0.9430602548061628  0.1100279411778331
  0.3322692090493504  0.8340505994386760  0.1100272124313832
  0.3886621862398556  0.9443571637289310  0.1100244149118055
  0.4997997509876910  0.8359912862836438  0.1100386071746868
  0.5566136352256592  0.9462234595122254  0.1100318001935463
  0.6667509704448307  0.8353697010733967  0.1100331300111463
  0.7235737731847180  0.9461383502413909  0.1100319397840153
  0.8307619992506048  0.8321246780443303  0.1100296113364010
  0.8884977670029102  0.9442080660979784  0.1100312505161796
  0.3386026647543616  0.3298775253630666  0.1100002809466503
  0.5502777177459919  0.4357155376568187  0.1100034433906885
  0.3385810495665353  0.5087993891705977  0.1100009560654271
  0.5502989420050781  0.6146572044299248  0.1100035406869324
  0.4444356758338230  0.4722632696258273  0.1099842724207036
 
  0.00000000E+00  0.00000000E+00  0.00000000E+00
  0.00000000E+00  0.00000000E+00  0.00000000E+00
  0.00000000E+00  0.00000000E+00  0.00000000E+00
  0.00000000E+00  0.00000000E+00  0.00000000E+00
  0.00000000E+00  0.00000000E+00  0.00000000E+00
  0.00000000E+00  0.00000000E+00  0.00000000E+00
  0.00000000E+00  0.00000000E+00  0.00000000E+00
  0.00000000E+00  0.00000000E+00  0.00000000E+00
  0.00000000E+00  0.00000000E+00  0.00000000E+00
  0.00000000E+00  0.00000000E+00  0.00000000E+00
  0.00000000E+00  0.00000000E+00  0.00000000E+00
  0.00000000E+00  0.00000000E+00  0.00000000E+00
  0.00000000E+00  0.00000000E+00  0.00000000E+00
  0.00000000E+00  0.00000000E+00  0.00000000E+00
  0.00000000E+00  0.00000000E+00  0.00000000E+00
  0.00000000E+00  0.00000000E+00  0.00000000E+00
  0.00000000E+00  0.00000000E+00  0.00000000E+00
  0.00000000E+00  0.00000000E+00  0.00000000E+00
  0.00000000E+00  0.00000000E+00  0.00000000E+00
  0.00000000E+00  0.00000000E+00  0.00000000E+00
  0.00000000E+00  0.00000000E+00  0.00000000E+00
  0.00000000E+00  0.00000000E+00  0.00000000E+00
  0.00000000E+00  0.00000000E+00  0.00000000E+00
  0.00000000E+00  0.00000000E+00  0.00000000E+00
  0.00000000E+00  0.00000000E+00  0.00000000E+00
  0.00000000E+00  0.00000000E+00  0.00000000E+00
  0.00000000E+00  0.00000000E+00  0.00000000E+00
  0.00000000E+00  0.00000000E+00  0.00000000E+00
  0.00000000E+00  0.00000000E+00  0.00000000E+00
  0.00000000E+00  0.00000000E+00  0.00000000E+00
  0.00000000E+00  0.00000000E+00  0.00000000E+00
  0.00000000E+00  0.00000000E+00  0.00000000E+00
  0.00000000E+00  0.00000000E+00  0.00000000E+00
  0.00000000E+00  0.00000000E+00  0.00000000E+00
  0.00000000E+00  0.00000000E+00  0.00000000E+00
  0.00000000E+00  0.00000000E+00  0.00000000E+00
  0.00000000E+00  0.00000000E+00  0.00000000E+00
  0.00000000E+00  0.00000000E+00  0.00000000E+00
  0.00000000E+00  0.00000000E+00  0.00000000E+00
  0.00000000E+00  0.00000000E+00  0.00000000E+00
  0.00000000E+00  0.00000000E+00  0.00000000E+00
  0.00000000E+00  0.00000000E+00  0.00000000E+00
  0.00000000E+00  0.00000000E+00  0.00000000E+00
  0.00000000E+00  0.00000000E+00  0.00000000E+00
  0.00000000E+00  0.00000000E+00  0.00000000E+00
  0.00000000E+00  0.00000000E+00  0.00000000E+00
  0.00000000E+00  0.00000000E+00  0.00000000E+00
  0.00000000E+00  0.00000000E+00  0.00000000E+00
  0.00000000E+00  0.00000000E+00  0.00000000E+00
  0.00000000E+00  0.00000000E+00  0.00000000E+00
  0.00000000E+00  0.00000000E+00  0.00000000E+00
  0.00000000E+00  0.00000000E+00  0.00000000E+00
  0.00000000E+00  0.00000000E+00  0.00000000E+00
  0.00000000E+00  0.00000000E+00  0.00000000E+00
  0.00000000E+00  0.00000000E+00  0.00000000E+00
  0.00000000E+00  0.00000000E+00  0.00000000E+00
  0.00000000E+00  0.00000000E+00  0.00000000E+00
  0.00000000E+00  0.00000000E+00  0.00000000E+00
  0.00000000E+00  0.00000000E+00  0.00000000E+00
  0.00000000E+00  0.00000000E+00  0.00000000E+00
  0.00000000E+00  0.00000000E+00  0.00000000E+00
  0.00000000E+00  0.00000000E+00  0.00000000E+00
  0.00000000E+00  0.00000000E+00  0.00000000E+00
  0.00000000E+00  0.00000000E+00  0.00000000E+00
  0.00000000E+00  0.00000000E+00  0.00000000E+00
  0.00000000E+00  0.00000000E+00  0.00000000E+00
  0.00000000E+00  0.00000000E+00  0.00000000E+00
  0.00000000E+00  0.00000000E+00  0.00000000E+00
  0.00000000E+00  0.00000000E+00  0.00000000E+00
  0.00000000E+00  0.00000000E+00  0.00000000E+00
  0.00000000E+00  0.00000000E+00  0.00000000E+00
